solution status: optimal solution found
objective value:                                    0
$_31_y                                             14 	(obj:0)
$_31_z                                             15 	(obj:0)
$_35_y                                             13 	(obj:0)
$_35_z                                              8 	(obj:0)
$_19__0_y                                          23 	(obj:0)
$_19__0_z                                          16 	(obj:0)
$_18__0_y                                          18 	(obj:0)
$_18__0_z                                          17 	(obj:0)
$_36_y                                             12 	(obj:0)
$_36_z                                              9 	(obj:0)
$_17__0_y                                          23 	(obj:0)
$_17__0_z                                          21 	(obj:0)
$_74_y                                             19 	(obj:0)
$_74_z                                             16 	(obj:0)
$_23__0_y                                          20 	(obj:0)
$_23__0_z                                           7 	(obj:0)
$_28__0_y                                          15 	(obj:0)
$_26__0_y                                           7 	(obj:0)
$_26__0_z                                          18 	(obj:0)
$_30_y                                             16 	(obj:0)
$_30_z                                             14 	(obj:0)
$_25__0_y                                           7 	(obj:0)
$_25__0_z                                          13 	(obj:0)
$_27__0_y                                          16 	(obj:0)
$_27__0_z                                          17 	(obj:0)
$_22__0_y                                          12 	(obj:0)
$_22__0_z                                           7 	(obj:0)
$_37_y                                             16 	(obj:0)
$_37_z                                             12 	(obj:0)
$_33_y                                             16 	(obj:0)
$_33_z                                             11 	(obj:0)
$_24__0_y                                          11 	(obj:0)
$_24__0_z                                           7 	(obj:0)
$_20__0_y                                          23 	(obj:0)
$_20__0_z                                          15 	(obj:0)
$_29_y                                             12 	(obj:0)
$_29_z                                              8 	(obj:0)
$_34_y                                             13 	(obj:0)
$_34_z                                             13 	(obj:0)
$_21__0_y                                          20 	(obj:0)
$_21__0_z                                          13 	(obj:0)
$_32_y                                             16 	(obj:0)
$_32_z                                             15 	(obj:0)
$_52_y                                             11 	(obj:0)
$_52_z                                              8 	(obj:0)
$_38_y                                             15 	(obj:0)
$_38_z                                             12 	(obj:0)
